#===============================================================================
# Created using the Atomic Simulation Environment (ASE)

# Mon Feb  5 23:36:54 2024

#=======================================================
lattice_vector 3.0329703935968326 0.0000000000000000 0.0000000000000000 
lattice_vector -1.5164851967984163 2.6266294097809446 -0.0000000000000000 
lattice_vector -0.0000000000000000 -0.0000000000000000 3.2258813827162820 
atom 0.0000000000000000 0.0000000000000000 0.0000000000000000 Ti
atom 0.0000000000000107 1.7510862731872903 1.6129406913581410 B
atom 1.5164851967984057 0.8755431365936545 1.6129406913581410 B
