#=======================================================
# FHI-aims file: ./geometry.in
# Created using the Atomic Simulation Environment (ASE)
# Thu Feb  1 21:39:27 2024
#=======================================================
lattice_vector 0.0000000000000000 2.7218499999999999 2.7218499999999999 
lattice_vector 2.7218499999999999 0.0000000000000000 2.7218499999999999 
lattice_vector 2.7218499999999999 2.7218499999999999 0.0000000000000000 
atom_frac 0.1250000000000000 0.1250000000000000 0.1250000000000000 Si
atom_frac 0.8750000000000000 0.8750000000000000 0.8750000000000000 Si
#=======================================================
# Parametric constraints
#=======================================================
symmetry_n_params 1 1 0
symmetry_params a
symmetry_lv 0, 0.5*a, 0.5*a
symmetry_lv 0.5*a, 0, 0.5*a
symmetry_lv 0.5*a, 0.5*a, 0
symmetry_frac 0.125, 0.125, 0.125
symmetry_frac 0.875, 0.875, 0.875
